(set-info :smt-lib-version 2.6)
(set-logic QF_NIA)
(set-info :source |
Generated by: Cristina Borralleras, Daniel Larraz, Albert Oliveras, Enric Rodriguez-Carbonell, Albert Rubio
Generated on: 2017-04-27
Generator: VeryMax
Application: Termination proving
Target solver: barcelogic
|)
(set-info :license "https://creativecommons.org/licenses/by/4.0/")
(set-info :category "industrial")
(set-info :status unknown)
(declare-fun Nl2main_i1 () Int)
(declare-fun Nl2main_i2 () Int)
(declare-fun Nl2main_i3 () Int)
(declare-fun lam0n0 () Int)
(declare-fun lam0n1 () Int)
(declare-fun lam0n2 () Int)
(declare-fun lam0n3 () Int)
(declare-fun Nl2CT1 () Int)
(declare-fun Nl2CT2 () Int)
(declare-fun Nl2CT3 () Int)
(declare-fun lam1n0 () Int)
(declare-fun lam1n1 () Int)
(declare-fun lam1n2 () Int)
(declare-fun lam1n3 () Int)
(declare-fun lam2n0 () Int)
(declare-fun lam2n1 () Int)
(declare-fun lam2n2 () Int)
(declare-fun lam2n3 () Int)
(declare-fun lam3n0 () Int)
(declare-fun lam3n1 () Int)
(declare-fun lam3n2 () Int)
(declare-fun lam3n3 () Int)
(declare-fun lam4n0 () Int)
(declare-fun lam4n1 () Int)
(declare-fun lam4n2 () Int)
(declare-fun lam4n3 () Int)
(declare-fun lam4n4 () Int)
(declare-fun lam5n0 () Int)
(declare-fun lam5n1 () Int)
(declare-fun lam5n2 () Int)
(declare-fun lam5n3 () Int)
(declare-fun lam5n4 () Int)
(declare-fun lam6n0 () Int)
(declare-fun lam6n1 () Int)
(declare-fun lam6n2 () Int)
(declare-fun lam6n3 () Int)
(declare-fun lam6n4 () Int)
(declare-fun lam7n0 () Int)
(declare-fun lam7n1 () Int)
(declare-fun lam7n2 () Int)
(declare-fun lam7n3 () Int)
(declare-fun lam7n4 () Int)
(declare-fun lam8n0 () Int)
(declare-fun lam9n0 () Int)
(declare-fun lam10n0 () Int)
(declare-fun main_i () Int)
(declare-fun lam14n0 () Int)
(declare-fun lam14n1 () Int)
(declare-fun lam14n2 () Int)
(declare-fun lam14n3 () Int)
(declare-fun RFN1_CT () Int)
(declare-fun RFN1_main_i () Int)
(declare-fun lam18n0 () Int)
(declare-fun lam18n1 () Int)
(declare-fun lam18n2 () Int)
(declare-fun lam18n3 () Int)
(declare-fun lam18n4 () Int)
(declare-fun lam12n0 () Int)
(declare-fun lam12n1 () Int)
(declare-fun lam12n2 () Int)
(declare-fun lam12n3 () Int)
(declare-fun lam13n0 () Int)
(declare-fun lam13n1 () Int)
(declare-fun lam13n2 () Int)
(declare-fun lam13n3 () Int)
(declare-fun lam16n0 () Int)
(declare-fun lam16n1 () Int)
(declare-fun lam16n2 () Int)
(declare-fun lam16n3 () Int)
(declare-fun lam16n4 () Int)
(declare-fun lam17n0 () Int)
(declare-fun lam17n1 () Int)
(declare-fun lam17n2 () Int)
(declare-fun lam17n3 () Int)
(declare-fun lam17n4 () Int)
(declare-fun lam11n0 () Int)
(declare-fun lam11n1 () Int)
(declare-fun lam11n2 () Int)
(declare-fun lam11n3 () Int)
(declare-fun lam15n0 () Int)
(declare-fun lam15n1 () Int)
(declare-fun lam15n2 () Int)
(declare-fun lam15n3 () Int)
(declare-fun lam15n4 () Int)
(assert ( and ( <= ( - 51 ) Nl2main_i1 ) ( <= Nl2main_i1 51 ) ( <= ( - 51 ) Nl2main_i2 ) ( <= Nl2main_i2 51 ) ( <= ( - 51 ) Nl2main_i3 ) ( <= Nl2main_i3 51 ) ))
(assert ( or ( and ( >= lam0n0 0 ) ( >= lam0n1 0 ) ( >= lam0n2 0 ) ( >= lam0n3 0 ) ( > ( + ( * ( - 49 ) lam0n0 ) ( * Nl2CT1 lam0n1 ) ( * Nl2CT2 lam0n2 ) ( * Nl2CT3 lam0n3 ) ( - 1 ) ) 0 ) ( = ( + ( * 1 lam0n0 ) ( * Nl2main_i1 lam0n1 ) ( * Nl2main_i2 lam0n2 ) ( * Nl2main_i3 lam0n3 ) ) 0 ) ) ( and ( >= lam1n0 0 ) ( >= lam1n1 0 ) ( >= lam1n2 0 ) ( >= lam1n3 0 ) ( > ( + ( * ( - 49 ) lam1n0 ) ( * Nl2CT1 lam1n1 ) ( * Nl2CT2 lam1n2 ) ( * Nl2CT3 lam1n3 ) ( - 1 ( + Nl2CT1 ( * Nl2main_i1 51 ) ) ) ) 0 ) ( = ( + ( * 1 lam1n0 ) ( * Nl2main_i1 lam1n1 ) ( * Nl2main_i2 lam1n2 ) ( * Nl2main_i3 lam1n3 ) ) 0 ) ) ))
(assert ( or ( and ( >= lam0n0 0 ) ( >= lam0n1 0 ) ( >= lam0n2 0 ) ( >= lam0n3 0 ) ( > ( + ( * ( - 49 ) lam0n0 ) ( * Nl2CT1 lam0n1 ) ( * Nl2CT2 lam0n2 ) ( * Nl2CT3 lam0n3 ) ( - 1 ) ) 0 ) ( = ( + ( * 1 lam0n0 ) ( * Nl2main_i1 lam0n1 ) ( * Nl2main_i2 lam0n2 ) ( * Nl2main_i3 lam0n3 ) ) 0 ) ) ( and ( >= lam2n0 0 ) ( >= lam2n1 0 ) ( >= lam2n2 0 ) ( >= lam2n3 0 ) ( > ( + ( * ( - 49 ) lam2n0 ) ( * Nl2CT1 lam2n1 ) ( * Nl2CT2 lam2n2 ) ( * Nl2CT3 lam2n3 ) ( - 1 ( + Nl2CT2 ( * Nl2main_i2 51 ) ) ) ) 0 ) ( = ( + ( * 1 lam2n0 ) ( * Nl2main_i1 lam2n1 ) ( * Nl2main_i2 lam2n2 ) ( * Nl2main_i3 lam2n3 ) ) 0 ) ) ))
(assert ( or ( and ( >= lam0n0 0 ) ( >= lam0n1 0 ) ( >= lam0n2 0 ) ( >= lam0n3 0 ) ( > ( + ( * ( - 49 ) lam0n0 ) ( * Nl2CT1 lam0n1 ) ( * Nl2CT2 lam0n2 ) ( * Nl2CT3 lam0n3 ) ( - 1 ) ) 0 ) ( = ( + ( * 1 lam0n0 ) ( * Nl2main_i1 lam0n1 ) ( * Nl2main_i2 lam0n2 ) ( * Nl2main_i3 lam0n3 ) ) 0 ) ) ( and ( >= lam3n0 0 ) ( >= lam3n1 0 ) ( >= lam3n2 0 ) ( >= lam3n3 0 ) ( > ( + ( * ( - 49 ) lam3n0 ) ( * Nl2CT1 lam3n1 ) ( * Nl2CT2 lam3n2 ) ( * Nl2CT3 lam3n3 ) ( - 1 ( + Nl2CT3 ( * Nl2main_i3 51 ) ) ) ) 0 ) ( = ( + ( * 1 lam3n0 ) ( * Nl2main_i1 lam3n1 ) ( * Nl2main_i2 lam3n2 ) ( * Nl2main_i3 lam3n3 ) ) 0 ) ) ))
(assert ( or ( and ( >= lam4n0 0 ) ( >= lam4n1 0 ) ( >= lam4n2 0 ) ( >= lam4n3 0 ) ( >= lam4n4 0 ) ( > ( + ( * 50 lam4n0 ) ( * ( - 99 ) lam4n1 ) ( * Nl2CT1 lam4n2 ) ( * Nl2CT2 lam4n3 ) ( * Nl2CT3 lam4n4 ) ( - 1 ) ) 0 ) ( = ( + ( * ( - 1 ) lam4n0 ) ( * 1 lam4n1 ) ( * Nl2main_i1 lam4n2 ) ( * Nl2main_i2 lam4n3 ) ( * Nl2main_i3 lam4n4 ) ) 0 ) ) ( and ( >= lam5n0 0 ) ( >= lam5n1 0 ) ( >= lam5n2 0 ) ( >= lam5n3 0 ) ( >= lam5n4 0 ) ( > ( + ( * 50 lam5n0 ) ( * ( - 99 ) lam5n1 ) ( * Nl2CT1 lam5n2 ) ( * Nl2CT2 lam5n3 ) ( * Nl2CT3 lam5n4 ) ( - 1 ( + Nl2CT1 ( * Nl2main_i1 49 ) ) ) ) 0 ) ( = ( + ( * ( - 1 ) lam5n0 ) ( * 1 lam5n1 ) ( * Nl2main_i1 lam5n2 ) ( * Nl2main_i2 lam5n3 ) ( * Nl2main_i3 lam5n4 ) ) 0 ) ) ))
(assert ( or ( and ( >= lam4n0 0 ) ( >= lam4n1 0 ) ( >= lam4n2 0 ) ( >= lam4n3 0 ) ( >= lam4n4 0 ) ( > ( + ( * 50 lam4n0 ) ( * ( - 99 ) lam4n1 ) ( * Nl2CT1 lam4n2 ) ( * Nl2CT2 lam4n3 ) ( * Nl2CT3 lam4n4 ) ( - 1 ) ) 0 ) ( = ( + ( * ( - 1 ) lam4n0 ) ( * 1 lam4n1 ) ( * Nl2main_i1 lam4n2 ) ( * Nl2main_i2 lam4n3 ) ( * Nl2main_i3 lam4n4 ) ) 0 ) ) ( and ( >= lam6n0 0 ) ( >= lam6n1 0 ) ( >= lam6n2 0 ) ( >= lam6n3 0 ) ( >= lam6n4 0 ) ( > ( + ( * 50 lam6n0 ) ( * ( - 99 ) lam6n1 ) ( * Nl2CT1 lam6n2 ) ( * Nl2CT2 lam6n3 ) ( * Nl2CT3 lam6n4 ) ( - 1 ( + Nl2CT2 ( * Nl2main_i2 49 ) ) ) ) 0 ) ( = ( + ( * ( - 1 ) lam6n0 ) ( * 1 lam6n1 ) ( * Nl2main_i1 lam6n2 ) ( * Nl2main_i2 lam6n3 ) ( * Nl2main_i3 lam6n4 ) ) 0 ) ) ))
(assert ( or ( and ( >= lam4n0 0 ) ( >= lam4n1 0 ) ( >= lam4n2 0 ) ( >= lam4n3 0 ) ( >= lam4n4 0 ) ( > ( + ( * 50 lam4n0 ) ( * ( - 99 ) lam4n1 ) ( * Nl2CT1 lam4n2 ) ( * Nl2CT2 lam4n3 ) ( * Nl2CT3 lam4n4 ) ( - 1 ) ) 0 ) ( = ( + ( * ( - 1 ) lam4n0 ) ( * 1 lam4n1 ) ( * Nl2main_i1 lam4n2 ) ( * Nl2main_i2 lam4n3 ) ( * Nl2main_i3 lam4n4 ) ) 0 ) ) ( and ( >= lam7n0 0 ) ( >= lam7n1 0 ) ( >= lam7n2 0 ) ( >= lam7n3 0 ) ( >= lam7n4 0 ) ( > ( + ( * 50 lam7n0 ) ( * ( - 99 ) lam7n1 ) ( * Nl2CT1 lam7n2 ) ( * Nl2CT2 lam7n3 ) ( * Nl2CT3 lam7n4 ) ( - 1 ( + Nl2CT3 ( * Nl2main_i3 49 ) ) ) ) 0 ) ( = ( + ( * ( - 1 ) lam7n0 ) ( * 1 lam7n1 ) ( * Nl2main_i1 lam7n2 ) ( * Nl2main_i2 lam7n3 ) ( * Nl2main_i3 lam7n4 ) ) 0 ) ) ))
(assert ( and ( = main_i 0 ) ( <= ( + Nl2CT1 ( * ( + 0 Nl2main_i1 ) main_i ) ) 0 ) ( <= ( + Nl2CT2 ( * ( + 0 Nl2main_i2 ) main_i ) ) 0 ) ( <= ( + Nl2CT3 ( * ( + 0 Nl2main_i3 ) main_i ) ) 0 ) ))
(assert ( or ( and ( and ( and ( >= lam14n0 0 ) ( >= lam14n1 0 ) ( >= lam14n2 0 ) ( >= lam14n3 0 ) ( > ( + ( * ( - 49 ) lam14n0 ) ( * Nl2CT1 lam14n1 ) ( * Nl2CT2 lam14n2 ) ( * Nl2CT3 lam14n3 ) ( - 1 ( - ( + RFN1_CT ( * RFN1_main_i 51 ) ) RFN1_CT ) ) ) 0 ) ( = ( + ( * 1 lam14n0 ) ( * Nl2main_i1 lam14n1 ) ( * Nl2main_i2 lam14n2 ) ( * Nl2main_i3 lam14n3 ) ( - ( - RFN1_main_i ) ) ) 0 ) ) ( and ( >= lam18n0 0 ) ( >= lam18n1 0 ) ( >= lam18n2 0 ) ( >= lam18n3 0 ) ( >= lam18n4 0 ) ( > ( + ( * 50 lam18n0 ) ( * ( - 99 ) lam18n1 ) ( * Nl2CT1 lam18n2 ) ( * Nl2CT2 lam18n3 ) ( * Nl2CT3 lam18n4 ) ( - 1 ( - ( + RFN1_CT ( * RFN1_main_i 49 ) ) RFN1_CT ) ) ) 0 ) ( = ( + ( * ( - 1 ) lam18n0 ) ( * 1 lam18n1 ) ( * Nl2main_i1 lam18n2 ) ( * Nl2main_i2 lam18n3 ) ( * Nl2main_i3 lam18n4 ) ( - ( - RFN1_main_i ) ) ) 0 ) ) ) ( or ( and ( and ( >= lam12n0 0 ) ( >= lam12n1 0 ) ( >= lam12n2 0 ) ( >= lam12n3 0 ) ( > ( + ( * ( - 49 ) lam12n0 ) ( * Nl2CT1 lam12n1 ) ( * Nl2CT2 lam12n2 ) ( * Nl2CT3 lam12n3 ) ( - 1 ( - RFN1_CT ) ) ) 0 ) ( = ( + ( * 1 lam12n0 ) ( * Nl2main_i1 lam12n1 ) ( * Nl2main_i2 lam12n2 ) ( * Nl2main_i3 lam12n3 ) ( - ( - RFN1_main_i ) ) ) 0 ) ) ( and ( >= lam13n0 0 ) ( >= lam13n1 0 ) ( >= lam13n2 0 ) ( >= lam13n3 0 ) ( > ( + ( * ( - 49 ) lam13n0 ) ( * Nl2CT1 lam13n1 ) ( * Nl2CT2 lam13n2 ) ( * Nl2CT3 lam13n3 ) ( - 1 ( + ( - ( + RFN1_CT ( * RFN1_main_i 51 ) ) RFN1_CT ) 1 ) ) ) 0 ) ( = ( + ( * 1 lam13n0 ) ( * Nl2main_i1 lam13n1 ) ( * Nl2main_i2 lam13n2 ) ( * Nl2main_i3 lam13n3 ) ( - ( - RFN1_main_i ) ) ) 0 ) ) ) ( and ( and ( >= lam16n0 0 ) ( >= lam16n1 0 ) ( >= lam16n2 0 ) ( >= lam16n3 0 ) ( >= lam16n4 0 ) ( > ( + ( * 50 lam16n0 ) ( * ( - 99 ) lam16n1 ) ( * Nl2CT1 lam16n2 ) ( * Nl2CT2 lam16n3 ) ( * Nl2CT3 lam16n4 ) ( - 1 ( - RFN1_CT ) ) ) 0 ) ( = ( + ( * ( - 1 ) lam16n0 ) ( * 1 lam16n1 ) ( * Nl2main_i1 lam16n2 ) ( * Nl2main_i2 lam16n3 ) ( * Nl2main_i3 lam16n4 ) ( - ( - RFN1_main_i ) ) ) 0 ) ) ( and ( >= lam17n0 0 ) ( >= lam17n1 0 ) ( >= lam17n2 0 ) ( >= lam17n3 0 ) ( >= lam17n4 0 ) ( > ( + ( * 50 lam17n0 ) ( * ( - 99 ) lam17n1 ) ( * Nl2CT1 lam17n2 ) ( * Nl2CT2 lam17n3 ) ( * Nl2CT3 lam17n4 ) ( - 1 ( + ( - ( + RFN1_CT ( * RFN1_main_i 49 ) ) RFN1_CT ) 1 ) ) ) 0 ) ( = ( + ( * ( - 1 ) lam17n0 ) ( * 1 lam17n1 ) ( * Nl2main_i1 lam17n2 ) ( * Nl2main_i2 lam17n3 ) ( * Nl2main_i3 lam17n4 ) ( - ( - RFN1_main_i ) ) ) 0 ) ) ) ) ) ( or ( and ( >= lam11n0 0 ) ( >= lam11n1 0 ) ( >= lam11n2 0 ) ( >= lam11n3 0 ) ( > ( + ( * ( - 49 ) lam11n0 ) ( * Nl2CT1 lam11n1 ) ( * Nl2CT2 lam11n2 ) ( * Nl2CT3 lam11n3 ) ( - 1 ) ) 0 ) ( = ( + ( * 1 lam11n0 ) ( * Nl2main_i1 lam11n1 ) ( * Nl2main_i2 lam11n2 ) ( * Nl2main_i3 lam11n3 ) ) 0 ) ) ( and ( >= lam15n0 0 ) ( >= lam15n1 0 ) ( >= lam15n2 0 ) ( >= lam15n3 0 ) ( >= lam15n4 0 ) ( > ( + ( * 50 lam15n0 ) ( * ( - 99 ) lam15n1 ) ( * Nl2CT1 lam15n2 ) ( * Nl2CT2 lam15n3 ) ( * Nl2CT3 lam15n4 ) ( - 1 ) ) 0 ) ( = ( + ( * ( - 1 ) lam15n0 ) ( * 1 lam15n1 ) ( * Nl2main_i1 lam15n2 ) ( * Nl2main_i2 lam15n3 ) ( * Nl2main_i3 lam15n4 ) ) 0 ) ) ) ))
(check-sat)
(exit)
